50
12057

337 333
60 731
22 908
983 563
821 173
941 4
932 609
809 395
292 923
897 507
81 142
1 776
515 902
643 223
181 428
254 919
276 381
748 823
669 214
443 889
374 507
574 956
275 952
556 745
80 771
590 963
418 263
848 626
502 38
400 242
354 642
775 520
826 474
406 666
911 520
250 304
402 464
172 745
127 87
527 867
510 241
719 310
784 209
209 582
537 172
302 182
189 66
504 743
723 246
608 383
